NAME : portcgen-15-19
COMMENT : portcgen N=15, seed=19
TYPE : TSP
DIMENSION : 15
EDGE_WEIGHT_TYPE : EUC_2D
NODE_COORD_SECTION
1 -60790 -208555
2 -227668 65167
3 64129 425579
4 -364484 165424
5 -263399 -84998
6 26320 -96866
7 451835 -69056
8 558104 99018
9 6757 -107241
10 222607 161750
11 -511341 228998
12 -231187 66709
13 -41465 -615978
14 -186468 186818
15 -328996 -3956
